FILENAME:   /home/mcs001/s132664/testsets/IP/miplib2017/neos-2669500-cust.mps.gz
SETTINGS:   settings_isopr_ostrowskidynamicbranching_avoidsubtreenodes
TIMELIMIT:  7200
OUTPUTNAME: final_miplib_symretope_if_extended_generating_set_cpx_v802__settings_isopr_ostrowskidynamicbranching_avoidsubtreenodes__3__
BINNAME:    bin/symmetries.linux.x86_64.gnu.opt.cpx
BASENAME:   neos-2669500-cust.mps.gz
SEED:       3
@01 /home/mcs001/s132664/testsets/IP/miplib2017/neos-2669500-cust.mps.gz ===========
@02 neos-2669500-cust.mps.gz
@03 1686581201
SCIP version 8.0.2 [precision: 8 byte] [memory: block] [mode: optimized] [LP solver: CPLEX 20.1.0.0] [GitHash: 5f0473c]
Copyright (C) 2002-2022 Konrad-Zuse-Zentrum fuer Informationstechnik Berlin (ZIB)

Symmetry handling routines - (c) Marc Pfetsch, Thomas Rehn, Christopher Hojny.
[GitHash: a1587cb]


Turned off presolver <gateextraction>.
reading parameter file <../settings/settings_isopr_ostrowskidynamicbranching_avoidsubtreenodes.set> ...

Changed settings:
limits/time = 7200
limits/restarts = 0
randomization/randomseedshift = 3
constraints/orbitope/sepafreq = -1
constraints/orbitope/propfreq = 1
presolving/gateextraction/maxrounds = 0
propagating/isoprune/avoidsubtreenodes = TRUE
useisoprune = TRUE


solving problem ...

original problem has 112008 variables (110880 bin, 1120 int, 0 impl, 8 cont) and 105744 constraints
presolving:
(round 1, fast)       16248 del vars, 25764 del conss, 8 add conss, 12 chg bounds, 62160 chg sides, 62160 chg coeffs, 0 upgd conss, 0 impls, 16128 clqs
(round 2, exhaustive) 16248 del vars, 25772 del conss, 8 add conss, 1132 chg bounds, 62168 chg sides, 62160 chg coeffs, 0 upgd conss, 0 impls, 16128 clqs
(round 3, fast)       16248 del vars, 25912 del conss, 8 add conss, 1132 chg bounds, 125308 chg sides, 125300 chg coeffs, 0 upgd conss, 560 impls, 16128 clqs
(round 4, exhaustive) 16248 del vars, 25912 del conss, 8 add conss, 1132 chg bounds, 125308 chg sides, 125300 chg coeffs, 79272 upgd conss, 560 impls, 16128 clqs
   (34.1s) probing: 1000/95200 (1.1%) - 0 fixings, 0 aggregations, 219780 implications, 0 bound changes
   (34.1s) probing: 1001/95200 (1.1%) - 0 fixings, 0 aggregations, 220000 implications, 0 bound changes
   (34.1s) probing aborted: 1000/1000 successive useless probings
Required symmetry:			(1 bin, 0 int, 0 cont); (fixed: 0 bin, 1 int, 0 cont)
Time for symmetry detection:		0.79 	(matrix graph, 335080 nodes, 949200 edges)
Number of generators:			61 	(max: 668)
Log10 of symmetry group order:		26.9
Number of vars moved by some symmetry:	12320
Total time for symmetry detection:	0.91

Turned off presolver <domcol>.
Turned off presolver <components>.

presolving (5 rounds: 5 fast, 3 medium, 3 exhaustive):
 16248 deleted vars, 25912 deleted constraints, 8 added constraints, 1132 tightened bounds, 0 added holes, 125308 changed sides, 125300 changed coefficients
 63140 implications, 562136 cliques
presolved problem has 95760 variables (95200 bin, 560 int, 0 impl, 0 cont) and 79841 constraints
  63140 constraints of type <varbound>
      4 constraints of type <knapsack>
  16128 constraints of type <setppc>
    568 constraints of type <linear>
      1 constraints of type <symmetries>
transformed objective value is always integral (scale: 0.1)
Presolving Time: 34.72

 time | node  | left  |LP iter|LP it/n|mem/heur|mdpt |frac |vars |cons |cols |rows |cuts |confs|strbr|  dualbound   | primalbound  |  gap   
 52.8s|     1 |     0 |  1147 |     - |  1290M |   0 | 842 |  95k|  80k|  95k|  79k|   0 | 411 |   0 | 2.221900e+03 |      --      |    Inf 
  124s|     1 |     0 |  9007 |     - |  1339M |   0 | 716 |  95k|  80k|  95k|  79k|   0 | 414 |  21 | 2.221900e+03 |      --      |    Inf 
  166s|     1 |     0 |  9027 |     - |  1341M |   0 | 703 |  95k|  80k|  95k|  79k|   0 | 414 |  46 | 2.221900e+03 |      --      |    Inf 
  210s|     1 |     0 |  9055 |     - |  1351M |   0 | 717 |  95k|  80k|  95k|  79k|   0 | 419 |  75 | 2.221900e+03 |      --      |    Inf 
  245s|     1 |     0 |  9095 |     - |  1351M |   0 | 655 |  95k|  80k|  95k|  79k|   0 | 420 |  98 | 2.221900e+03 |      --      |    Inf 
  271s|     1 |     0 |  9095 |     - |  1351M |   0 | 655 |  95k|  80k|  95k|  79k|   0 | 420 | 100 | 2.221900e+03 |      --      |    Inf 
  303s|     1 |     0 |  9132 |     - |  1351M |   0 | 629 |  95k|  80k|  95k|  79k|   0 | 425 | 111 | 2.221900e+03 |      --      |    Inf 
  356s|     1 |     0 | 12606 |     - |  1355M |   0 | 679 |  95k|  80k|  95k|  79k|   0 | 428 | 133 | 2.221900e+03 |      --      |    Inf 
  445s|     1 |     0 | 14522 |     - |  1356M |   0 | 817 |  95k|  80k|  95k|  79k|   0 | 432 | 166 | 2.221900e+03 |      --      |    Inf 
  488s|     1 |     0 | 16506 |     - |  1359M |   0 | 763 |  95k|  80k|  95k|  79k|   0 | 437 | 178 | 2.221900e+03 |      --      |    Inf 
  573s|     1 |     0 | 18565 |     - |  1360M |   0 | 883 |  95k|  80k|  95k|  79k|   0 | 442 | 217 | 2.221900e+03 |      --      |    Inf 
  693s|     1 |     0 | 19628 |     - |  1360M |   0 | 762 |  95k|  80k|  95k|  79k|   0 | 445 | 260 | 2.221900e+03 |      --      |    Inf 
  726s|     1 |     0 | 22339 |     - |  1360M |   0 | 835 |  95k|  80k|  95k|  79k|   0 | 450 | 267 | 2.221900e+03 |      --      |    Inf 
  777s|     1 |     0 | 24611 |     - |  1360M |   0 | 980 |  95k|  80k|  95k|  79k|   0 | 455 | 286 | 2.221900e+03 |      --      |    Inf 
  848s|     1 |     0 | 26421 |     - |  1360M |   0 | 770 |  95k|  80k|  95k|  79k|   0 | 460 | 313 | 2.221900e+03 |      --      |    Inf 
 time | node  | left  |LP iter|LP it/n|mem/heur|mdpt |frac |vars |cons |cols |rows |cuts |confs|strbr|  dualbound   | primalbound  |  gap   
  914s|     1 |     0 | 27960 |     - |  1360M |   0 | 762 |  95k|  80k|  95k|  79k|   0 | 465 | 341 | 2.221900e+03 |      --      |    Inf 
  938s|     1 |     0 | 28085 |     - |  1360M |   0 | 695 |  95k|  80k|  95k|  79k|   0 | 469 | 345 | 2.221900e+03 |      --      |    Inf 
 1016s|     1 |     0 | 30278 |     - |  1360M |   0 | 739 |  95k|  80k|  95k|  79k|   0 | 473 | 375 | 2.221900e+03 |      --      |    Inf 
 1074s|     1 |     0 | 32781 |     - |  1360M |   0 | 780 |  95k|  80k|  95k|  79k|   0 | 478 | 394 | 2.221900e+03 |      --      |    Inf 
 1132s|     1 |     0 | 35432 |     - |  1360M |   0 | 794 |  95k|  80k|  95k|  79k|   0 | 483 | 417 | 2.221900e+03 |      --      |    Inf 
 1201s|     1 |     0 | 37560 |     - |  1360M |   0 | 911 |  95k|  80k|  95k|  79k|   0 | 488 | 440 | 2.221900e+03 |      --      |    Inf 
 1275s|     1 |     0 | 39216 |     - |  1360M |   0 | 887 |  95k|  80k|  95k|  79k|   0 | 491 | 464 | 2.221900e+03 |      --      |    Inf 
 1332s|     1 |     0 | 40893 |     - |  1360M |   0 | 977 |  95k|  80k|  95k|  79k|   0 | 496 | 487 | 2.221900e+03 |      --      |    Inf 
 1395s|     1 |     0 | 42199 |     - |  1360M |   0 | 786 |  95k|  80k|  95k|  79k|   0 | 500 | 510 | 2.221900e+03 |      --      |    Inf 
 1462s|     1 |     0 | 43725 |     - |  1360M |   0 |1004 |  95k|  80k|  95k|  79k|   0 | 505 | 532 | 2.221900e+03 |      --      |    Inf 
 1530s|     1 |     0 | 45361 |     - |  1360M |   0 | 895 |  95k|  80k|  95k|  79k|   0 | 506 | 552 | 2.221900e+03 |      --      |    Inf 
 1661s|     1 |     0 | 47159 |     - |  1360M |   0 | 923 |  95k|  80k|  95k|  79k|   0 | 511 | 603 | 2.221900e+03 |      --      |    Inf 
 1780s|     1 |     0 | 49302 |     - |  1360M |   0 | 863 |  95k|  80k|  95k|  79k|   0 | 516 | 647 | 2.221900e+03 |      --      |    Inf 
 1878s|     1 |     0 | 50468 |     - |  1360M |   0 | 896 |  95k|  80k|  95k|  79k|   0 | 520 | 681 | 2.221900e+03 |      --      |    Inf 
 1966s|     1 |     0 | 51688 |     - |  1360M |   0 |1019 |  95k|  80k|  95k|  79k|   0 | 523 | 714 | 2.221900e+03 |      --      |    Inf 
 time | node  | left  |LP iter|LP it/n|mem/heur|mdpt |frac |vars |cons |cols |rows |cuts |confs|strbr|  dualbound   | primalbound  |  gap   
 2027s|     1 |     0 | 51878 |     - |  1360M |   0 |1012 |  95k|  80k|  95k|  79k|   0 | 525 | 735 | 2.221900e+03 |      --      |    Inf 
 2109s|     1 |     0 | 53447 |     - |  1360M |   0 | 891 |  95k|  80k|  95k|  79k|   0 | 529 | 766 | 2.221900e+03 |      --      |    Inf 
 2167s|     1 |     2 | 53447 |     - |  1360M |   0 | 891 |  95k|  80k|  95k|  79k|   0 | 529 | 785 | 2.221900e+03 |      --      |    Inf 
 3287s|   100 |    89 |129292 |1180.2 |  1375M |  31 | 486 |  95k|  79k|  95k|  79k|   0 | 552 | 943 | 2.221900e+03 |      --      |    Inf 
 3506s|   200 |   165 |166528 | 774.3 |  1390M |  31 |   - |  95k|  79k|   0 |   0 |   0 | 559 | 970 | 2.221900e+03 |      --      |    Inf 
 3708s|   300 |   231 |202750 | 636.4 |  1398M |  31 | 608 |  95k|  79k|  95k|  79k|   0 | 570 |1011 | 2.221900e+03 |      --      |    Inf 
 3936s|   400 |   321 |278741 | 667.4 |  1417M |  31 | 692 |  95k|  80k|  95k|  79k|   0 | 597 |1038 | 2.221900e+03 |      --      |    Inf 
 4266s|   500 |   401 |316995 | 610.3 |  1426M |  45 | 427 |  95k|  80k|  95k|  79k|   0 | 610 |1074 | 2.221900e+03 |      --      |    Inf 
 4602s|   600 |   481 |355337 | 572.4 |  1434M |  51 | 351 |  95k|  80k|  95k|  79k|   0 | 648 |1090 | 2.221900e+03 |      --      |    Inf 
 4918s|   700 |   558 |396121 | 548.9 |  1448M |  51 | 499 |  95k|  80k|  95k|  79k|   0 | 678 |1159 | 2.221900e+03 |      --      |    Inf 
 5082s|   800 |   642 |436195 | 530.3 |  1458M |  51 | 445 |  95k|  80k|  95k|  79k|   0 | 691 |1191 | 2.221900e+03 |      --      |    Inf 
 5284s|   900 |   705 |468747 | 507.6 |  1465M |  51 | 343 |  95k|  80k|  95k|  79k|   0 | 710 |1218 | 2.221900e+03 |      --      |    Inf 
 5434s|  1000 |   792 |500620 | 488.7 |  1474M |  51 | 495 |  95k|  80k|  95k|  79k|   0 | 733 |1248 | 2.221900e+03 |      --      |    Inf 
 5607s|  1100 |   875 |537662 | 477.9 |  1483M |  51 | 437 |  95k|  80k|  95k|  79k|   0 | 743 |1303 | 2.221900e+03 |      --      |    Inf 
 5819s|  1200 |   968 |587045 | 479.2 |  1493M |  51 | 558 |  95k|  80k|  95k|  79k|   0 | 773 |1329 | 2.221900e+03 |      --      |    Inf 
 time | node  | left  |LP iter|LP it/n|mem/heur|mdpt |frac |vars |cons |cols |rows |cuts |confs|strbr|  dualbound   | primalbound  |  gap   
 5979s|  1300 |  1048 |621575 | 468.9 |  1500M |  51 | 428 |  95k|  80k|  95k|  79k|   0 | 796 |1360 | 2.221900e+03 |      --      |    Inf 
 6517s|  1400 |  1139 |667069 | 467.9 |  1509M |  51 | 440 |  95k|  80k|  95k|  79k|   0 | 810 |1427 | 2.221900e+03 |      --      |    Inf 
 6751s|  1500 |  1233 |719058 | 471.4 |  1516M |  51 | 534 |  95k|  80k|  95k|  79k|   0 | 827 |1473 | 2.221900e+03 |      --      |    Inf 
 6978s|  1600 |  1313 |758706 | 466.7 |  1524M |  51 | 409 |  95k|  80k|  95k|  79k|   0 | 852 |1508 | 2.221900e+03 |      --      |    Inf 
 7131s|  1700 |  1406 |789193 | 457.2 |  1532M |  51 | 419 |  95k|  80k|  95k|  79k|   0 | 889 |1539 | 2.221900e+03 |      --      |    Inf 

SCIP Status        : solving was interrupted [time limit reached]
Solving Time (sec) : 7200.02
Solving Nodes      : 1739
Primal Bound       : +1.00000000000000e+20 (0 solutions)
Dual Bound         : +2.22190000000001e+03
Gap                : infinite

Number of variables fixed to 0 by isomorphism pruning:	    13
Number of variables fixed to 1 by isomorphism pruning:	     0
@04 1686588403
